data;
param nombreJob := 6;
param nombreRessource := 3;
param duree := 1 3 2 10 3 6 4 3 5 4 6 6;
param capaciteRessource := 1 7 2 13 3 12;
param besoinRessource : 1 2 3 :=
                    1   2 8 1
                    2   1 7 9
                    3   1 2 2
                    4   4 5 1
                    5   4 8 5
                    6   2 8 1;
end;

